param sigma
: 1   2 :=
1 0.00001 0.99999
2 0.10000 0.90000
3 0.20000 0.80000
4 0.30000 0.70000
5 0.40000 0.60000
6 0.50000 0.50000
7 0.90000 0.10000
8 0.80000 0.20000
9 0.70000 0.30000
10 0.60000 0.40000
11 0.99999 0.00001
;

set S:=
1 2 3 4 5 6 7 8 9 10 11 12 13 14 15 16 17 18 19 20 21 22 23 24 25 26 27 28 29 30 31 32 33 34 35 36 37 38 39 40 41 42 43 44 45 46 47 48 49 50 51 52 53 54 55 56 57 58 59 60 61 62 63 64 65 66 67 68 69 70 71 72 73 74 75 76 77 78 79 80 81 82 83 84 ;

set C:=
1 2 3 4 5 6 7 8 9 10 11 12 ;

set A:=
1 2 3 4 5 6 7 8 9 10 11 12 13 14 15 16 17 18 19 20 21 22 23 24 ;

set T:=
1_1_2 1_3_4 1_5_6 1_7_8 1_9_10 
2_1_2 2_3_4 2_5_6 2_7_8 2_9_10 
;

set R:=
1 2 3 4 5 ;

set Ac[1]:=
1 2 ;
set Ac[2]:=
3 4 ;
set Ac[3]:=
5 6 ;
set Ac[4]:=
7 8 ;
set Ac[5]:=
9 10 ;
set Ac[6]:=
11 12 ;
set Ac[7]:=
13 14 ;
set Ac[8]:=
15 16 ;
set Ac[9]:=
17 18 ;
set Ac[10]:=
19 20 ;
set Ac[11]:=
21 22 ;
set Ac[12]:=
23 24 ;

set Cs[1]:=
9 6 7 12 8 ;
set Cs[2]:=
1 12 4 11 10 5 7 ;
set Cs[3]:=
9 3 11 10 2 ;
set Cs[4]:=
8 5 4 1 10 12 ;
set Cs[5]:=
6 3 5 11 7 1 2 ;
set Cs[6]:=
3 7 12 5 6 11 ;
set Cs[7]:=
6 11 5 7 8 10 ;
set Cs[8]:=
3 2 8 11 1 7 9 ;
set Cs[9]:=
4 2 5 7 8 10 6 ;
set Cs[10]:=
8 10 5 4 1 ;
set Cs[11]:=
3 6 10 12 5 9 ;
set Cs[12]:=
5 7 10 6 8 2 ;
set Cs[13]:=
7 3 4 6 9 ;
set Cs[14]:=
1 9 11 5 12 ;
set Cs[15]:=
8 9 4 6 10 2 ;
set Cs[16]:=
12 7 1 9 8 11 6 ;
set Cs[17]:=
8 4 1 7 9 ;
set Cs[18]:=
3 5 12 9 7 2 ;
set Cs[19]:=
1 2 12 3 6 5 ;
set Cs[20]:=
1 3 7 12 8 ;
set Cs[21]:=
1 6 2 9 12 11 ;
set Cs[22]:=
9 6 3 8 2 7 4 ;
set Cs[23]:=
2 8 10 12 7 5 ;
set Cs[24]:=
9 3 6 7 5 12 4 ;
set Cs[25]:=
7 9 12 2 5 ;
set Cs[26]:=
4 10 5 6 9 11 ;
set Cs[27]:=
2 1 9 8 3 11 ;
set Cs[28]:=
4 7 12 2 5 1 ;
set Cs[29]:=
6 1 8 7 9 11 12 ;
set Cs[30]:=
1 4 12 9 7 2 3 ;
set Cs[31]:=
11 12 7 4 9 6 ;
set Cs[32]:=
1 8 3 6 5 ;
set Cs[33]:=
4 7 2 5 12 6 ;
set Cs[34]:=
11 4 7 6 1 9 2 ;
set Cs[35]:=
6 8 3 7 5 12 ;
set Cs[36]:=
10 12 4 6 2 7 ;
set Cs[37]:=
4 7 6 11 9 ;
set Cs[38]:=
2 3 5 6 12 7 ;
set Cs[39]:=
6 1 4 7 12 3 11 ;
set Cs[40]:=
2 9 3 7 8 6 ;
set Cs[41]:=
7 8 1 3 5 2 ;
set Cs[42]:=
1 5 11 7 2 6 4 ;
set Cs[43]:=
10 1 9 4 2 ;
set Cs[44]:=
6 7 1 9 10 5 ;
set Cs[45]:=
7 10 3 12 6 5 ;
set Cs[46]:=
11 8 10 9 6 1 4 ;
set Cs[47]:=
11 9 6 2 5 ;
set Cs[48]:=
1 11 12 8 5 7 ;
set Cs[49]:=
6 10 12 4 9 5 2 ;
set Cs[50]:=
1 4 9 7 6 11 10 ;
set Cs[51]:=
12 2 11 8 1 9 4 ;
set Cs[52]:=
3 6 4 1 11 8 9 ;
set Cs[53]:=
3 4 10 12 9 1 ;
set Cs[54]:=
11 10 9 1 12 4 7 ;
set Cs[55]:=
10 7 2 4 12 ;
set Cs[56]:=
5 2 12 11 6 ;
set Cs[57]:=
5 2 11 12 6 ;
set Cs[58]:=
5 12 6 8 3 11 ;
set Cs[59]:=
2 9 5 11 4 12 8 ;
set Cs[60]:=
9 2 8 7 6 11 10 ;
set Cs[61]:=
4 7 3 8 12 10 9 ;
set Cs[62]:=
11 5 6 7 2 ;
set Cs[63]:=
12 1 6 5 7 10 11 ;
set Cs[64]:=
8 6 4 12 5 10 ;
set Cs[65]:=
11 1 9 2 12 ;
set Cs[66]:=
11 7 10 5 2 ;
set Cs[67]:=
7 11 3 5 12 2 ;
set Cs[68]:=
11 4 3 5 6 ;
set Cs[69]:=
11 2 4 5 1 12 9 ;
set Cs[70]:=
4 7 9 10 8 5 ;
set Cs[71]:=
1 9 10 2 8 11 12 ;
set Cs[72]:=
9 1 3 7 11 5 10 ;
set Cs[73]:=
12 4 6 8 9 ;
set Cs[74]:=
12 1 9 8 11 10 4 ;
set Cs[75]:=
12 4 5 3 9 ;
set Cs[76]:=
8 1 6 12 2 ;
set Cs[77]:=
7 12 2 6 3 11 ;
set Cs[78]:=
4 9 11 7 1 ;
set Cs[79]:=
7 12 8 9 11 6 ;
set Cs[80]:=
7 3 12 8 11 4 ;
set Cs[81]:=
7 11 5 1 4 ;
set Cs[82]:=
4 5 9 7 6 3 ;
set Cs[83]:=
2 8 6 7 5 10 ;
set Cs[84]:=
7 11 6 8 5 12 ;

set Ra[1]:=
1 2 3 4 5 ;
set Ra[2]:=
1 2 3 4 5 ;
set Ra[3]:=
1 2 3 4 5 ;
set Ra[4]:=
1 2 3 4 5 ;
set Ra[5]:=
1 2 3 4 5 ;
set Ra[6]:=
1 2 3 4 5 ;
set Ra[7]:=
1 2 3 4 5 ;
set Ra[8]:=
1 2 3 4 5 ;
set Ra[9]:=
1 2 3 4 5 ;
set Ra[10]:=
1 2 3 4 5 ;
set Ra[11]:=
1 2 3 4 5 ;
set Ra[12]:=
1 2 3 4 5 ;
set Ra[13]:=
1 2 3 4 5 ;
set Ra[14]:=
1 2 3 4 5 ;
set Ra[15]:=
1 2 3 4 5 ;
set Ra[16]:=
1 2 3 4 5 ;
set Ra[17]:=
1 2 3 4 5 ;
set Ra[18]:=
1 2 3 4 5 ;
set Ra[19]:=
1 2 3 4 5 ;
set Ra[20]:=
1 2 3 4 5 ;
set Ra[21]:=
1 2 3 4 5 ;
set Ra[22]:=
1 2 3 4 5 ;
set Ra[23]:=
1 2 3 4 5 ;
set Ra[24]:=
1 2 3 4 5 ;

set Ts[1]:=
1_3_4 2_5_6 1_5_6 1_1_2 ;
set Ts[2]:=
2_7_8 2_5_6 1_7_8 1_3_4 ;
set Ts[3]:=
2_9_10 1_5_6 1_1_2 2_7_8 ;
set Ts[4]:=
1_9_10 1_3_4 ;
set Ts[5]:=
1_7_8 2_5_6 2_3_4 ;
set Ts[6]:=
2_3_4 1_9_10 1_1_2 ;
set Ts[7]:=
1_3_4 1_1_2 2_1_2 2_5_6 ;
set Ts[8]:=
2_5_6 1_3_4 1_7_8 2_1_2 ;
set Ts[9]:=
1_9_10 1_5_6 2_3_4 1_7_8 ;
set Ts[10]:=
1_9_10 2_9_10 1_1_2 ;
set Ts[11]:=
1_7_8 2_1_2 2_9_10 ;
set Ts[12]:=
1_1_2 2_3_4 1_9_10 2_7_8 ;
set Ts[13]:=
2_3_4 2_9_10 2_1_2 ;
set Ts[14]:=
2_5_6 2_9_10 1_1_2 ;
set Ts[15]:=
2_9_10 1_3_4 2_7_8 1_7_8 ;
set Ts[16]:=
2_5_6 1_5_6 1_9_10 2_3_4 ;
set Ts[17]:=
2_7_8 1_1_2 2_1_2 ;
set Ts[18]:=
1_5_6 1_7_8 1_3_4 ;
set Ts[19]:=
1_1_2 1_7_8 1_5_6 2_5_6 ;
set Ts[20]:=
2_5_6 1_7_8 1_9_10 ;
set Ts[21]:=
2_9_10 1_3_4 2_7_8 1_1_2 ;
set Ts[22]:=
2_3_4 2_9_10 2_7_8 ;
set Ts[23]:=
1_9_10 2_1_2 1_3_4 2_7_8 ;
set Ts[24]:=
2_9_10 1_1_2 ;
set Ts[25]:=
2_7_8 1_1_2 1_5_6 ;
set Ts[26]:=
2_3_4 1_9_10 1_1_2 ;
set Ts[27]:=
2_7_8 1_5_6 ;
set Ts[28]:=
1_5_6 1_9_10 1_3_4 ;
set Ts[29]:=
1_3_4 2_1_2 1_1_2 ;
set Ts[30]:=
2_7_8 1_3_4 2_3_4 1_1_2 ;
set Ts[31]:=
2_7_8 1_7_8 1_5_6 ;
set Ts[32]:=
2_1_2 2_9_10 1_1_2 1_9_10 ;
set Ts[33]:=
2_1_2 1_5_6 ;
set Ts[34]:=
2_5_6 1_9_10 1_5_6 ;
set Ts[35]:=
1_9_10 2_3_4 2_9_10 2_5_6 ;
set Ts[36]:=
1_5_6 2_3_4 ;
set Ts[37]:=
2_9_10 1_5_6 1_3_4 1_1_2 ;
set Ts[38]:=
1_1_2 1_7_8 ;
set Ts[39]:=
1_5_6 1_1_2 1_9_10 ;
set Ts[40]:=
1_3_4 2_7_8 ;
set Ts[41]:=
1_7_8 1_3_4 1_9_10 2_9_10 ;
set Ts[42]:=
2_5_6 1_5_6 2_3_4 ;
set Ts[43]:=
2_1_2 2_7_8 1_5_6 1_3_4 ;
set Ts[44]:=
1_3_4 1_9_10 2_5_6 ;
set Ts[45]:=
2_3_4 2_7_8 ;
set Ts[46]:=
1_1_2 1_3_4 1_7_8 ;
set Ts[47]:=
1_3_4 1_7_8 ;
set Ts[48]:=
2_1_2 1_9_10 1_5_6 2_7_8 ;
set Ts[49]:=
1_5_6 2_9_10 1_3_4 ;
set Ts[50]:=
1_9_10 1_7_8 1_5_6 ;
set Ts[51]:=
2_3_4 1_3_4 2_1_2 ;
set Ts[52]:=
1_7_8 2_3_4 2_9_10 1_5_6 ;
set Ts[53]:=
2_9_10 1_5_6 2_1_2 1_3_4 ;
set Ts[54]:=
1_1_2 1_9_10 2_3_4 1_7_8 ;
set Ts[55]:=
1_5_6 2_7_8 1_3_4 ;
set Ts[56]:=
2_1_2 2_3_4 ;
set Ts[57]:=
1_5_6 1_9_10 1_7_8 ;
set Ts[58]:=
2_3_4 1_7_8 2_1_2 2_7_8 ;
set Ts[59]:=
2_5_6 2_3_4 2_7_8 ;
set Ts[60]:=
2_7_8 2_5_6 2_9_10 1_9_10 ;
set Ts[61]:=
2_7_8 2_3_4 1_3_4 ;
set Ts[62]:=
1_1_2 1_3_4 ;
set Ts[63]:=
2_5_6 1_3_4 1_9_10 2_3_4 ;
set Ts[64]:=
1_1_2 1_3_4 ;
set Ts[65]:=
1_3_4 2_7_8 2_9_10 2_1_2 ;
set Ts[66]:=
2_1_2 1_5_6 ;
set Ts[67]:=
2_3_4 2_5_6 1_5_6 1_9_10 ;
set Ts[68]:=
2_5_6 2_3_4 ;
set Ts[69]:=
1_1_2 2_5_6 ;
set Ts[70]:=
2_3_4 1_9_10 ;
set Ts[71]:=
1_3_4 2_7_8 ;
set Ts[72]:=
1_7_8 1_9_10 ;
set Ts[73]:=
2_5_6 1_9_10 1_5_6 ;
set Ts[74]:=
1_7_8 2_5_6 ;
set Ts[75]:=
1_3_4 1_7_8 ;
set Ts[76]:=
1_3_4 1_7_8 2_9_10 ;
set Ts[77]:=
2_1_2 2_5_6 1_1_2 ;
set Ts[78]:=
2_5_6 1_9_10 ;
set Ts[79]:=
1_3_4 2_7_8 ;
set Ts[80]:=
1_3_4 1_7_8 1_1_2 ;
set Ts[81]:=
1_7_8 2_3_4 1_9_10 ;
set Ts[82]:=
2_7_8 1_9_10 ;
set Ts[83]:=
1_3_4 2_5_6 1_5_6 1_9_10 ;
set Ts[84]:=
1_5_6 1_7_8 1_3_4 1_1_2 ;

param rho:=
1 84
2 84
3 84
4 84
5 84
;

param sigma_class:=
1 84
2 84
3 84
4 84
5 84
6 84
7 84
8 84
9 84
10 84
11 84
12 84
;

param kmin:=
1 2
2 3
3 2
4 3
5 3
6 3
7 3
8 3
9 3
10 2
11 3
12 3
13 2
14 2
15 3
16 3
17 2
18 3
19 3
20 2
21 3
22 3
23 3
24 3
25 2
26 3
27 3
28 3
29 3
30 3
31 3
32 2
33 3
34 3
35 3
36 3
37 2
38 3
39 3
40 3
41 3
42 3
43 2
44 3
45 3
46 3
47 2
48 3
49 3
50 3
51 3
52 3
53 3
54 3
55 2
56 2
57 2
58 3
59 3
60 3
61 3
62 2
63 3
64 3
65 2
66 2
67 3
68 2
69 3
70 3
71 3
72 3
73 2
74 3
75 2
76 2
77 3
78 2
79 3
80 3
81 2
82 3
83 3
84 3
;

param kmax:=
1 5
2 7
3 5
4 6
5 7
6 6
7 6
8 7
9 7
10 5
11 6
12 6
13 5
14 5
15 6
16 7
17 5
18 6
19 6
20 5
21 6
22 7
23 6
24 7
25 5
26 6
27 6
28 6
29 7
30 7
31 6
32 5
33 6
34 7
35 6
36 6
37 5
38 6
39 7
40 6
41 6
42 7
43 5
44 6
45 6
46 7
47 5
48 6
49 7
50 7
51 7
52 7
53 6
54 7
55 5
56 5
57 5
58 6
59 7
60 7
61 7
62 5
63 7
64 6
65 5
66 5
67 6
68 5
69 7
70 6
71 7
72 7
73 5
74 7
75 5
76 5
77 6
78 5
79 6
80 6
81 5
82 6
83 6
84 6
;

